# Solution for model DANOINT
# Objective value = 6.5666666666666671e+01
z 6.5666666666666671e+01
xab 0
xac 0
xad 1
xae 0
xaf 1
xag 0
xah 0
xba 1
xbc 0
xbd 0
xbe 1
xbf 0
xbg 0
xbh 0
xca 1
xcb 0
xcd 0
xce 0
xcf 0
xcg 0
xch 1
xda 0
xdb 0
xdc 1
xde 1
xdf 0
xdg 0
xdh 0
xea 0
xeb 0
xec 1
xed 0
xef 0
xeg 1
xeh 0
xfa 0
xfb 1
xfc 0
xfd 0
xfe 0
xfg 0
xfh 1
xga 0
xgb 0
xgc 0
xgd 1
xge 0
xgf 1
xgh 0
xha 0
xhb 1
xhc 0
xhd 0
xhe 0
xhf 0
xhg 1
floab 0
faab 0
fcab 0
fdab 0
feab 0
ffab 0
fgab 0
fhab 0
floac 0
faac 0
fbac 0
fdac 0
feac 0
ffac 0
fgac 0
fhac 0
fload 6.5666666666666671e+01
faad 3.5666666666666671e+01
fbad 13
fcad 17
fead 0
ffad 0
fgad 0
fhad 0
floae 0
faae 0
fbae 0
fcae 0
fdae 0
ffae 0
fgae 0
fhae 0
floaf 6.4333333333333329e+01
faaf 3.8333333333333329e+01
fbaf 18
fcaf 5
fdaf 0
feaf 0
fgaf 0
fhaf 3
floag 0
faag 0
fbag 0
fcag 0
fdag 0
feag 0
ffag 0
fhag 0
floah 0
faah 0
fbah 0
fcah 0
fdah 0
feah 0
ffah 0
fgah 0
floba 6.5666666666666671e+01
fbba 45
fcba 0
fdba 0
feba 0
ffba 5
fgba 1.6666666666666714e+00
fhba 14
flobc 0
fabc 0
fbbc 0
fdbc 0
febc 0
ffbc 0
fgbc 0
fhbc 0
flobd 0
fabd 0
fbbd 0
fcbd 0
febd 0
ffbd 0
fgbd 0
fhbd 0
flobe 6.5666666666666671e+01
fabe 0
fbbe 36
fcbe 0
fdbe 0
ffbe 1.9666666666666657e+01
fgbe 0
fhbe 10
flobf 0
fabf 0
fbbf 0
fcbf 0
fdbf 0
febf 0
fgbf 0
fhbf 0
flobg 0
fabg 0
fbbg 0
fcbg 0
fdbg 0
febg 0
ffbg 0
fhbg 0
flobh 0
fabh 0
fbbh 0
fcbh 0
fdbh 0
febh 0
ffbh 0
fgbh 0
floca 5.4333333333333329e+01
fbca 0
fcca 35
fdca 7
feca 8
ffca 0
fgca 4.3333333333333286e+00
fhca 0
flocb 0
facb 0
fccb 0
fdcb 0
fecb 0
ffcb 0
fgcb 0
fhcb 0
flocd 0
facd 0
fbcd 0
fccd 0
fecd 0
ffcd 0
fgcd 0
fhcd 0
floce 0
face 0
fbce 0
fcce 0
fdce 0
ffce 0
fgce 0
fhce 0
flocf 0
facf 0
fbcf 0
fccf 0
fdcf 0
fecf 0
fgcf 0
fhcf 0
flocg 0
facg 0
fbcg 0
fccg 0
fdcg 0
fecg 0
ffcg 0
fhcg 0
floch 6.5000000000000014e+01
fach 0
fbch 0
fcch 28
fdch 17
fech 2.0000000000000014e+01
ffch 0
fgch 0
floda 0
fbda 0
fcda 0
fdda 0
feda 0
ffda 0
fgda 0
fhda 0
flodb 0
fadb 0
fcdb 0
fddb 0
fedb 0
ffdb 0
fgdb 0
fhdb 0
flodc 6.5666666666666671e+01
fadc 7
fbdc 0
fddc 39
fedc 0
ffdc 3.3333333333334281e-01
fgdc 1.1333333333333329e+01
fhdc 8
flode 5.5666666666666671e+01
fade 1.5666666666666671e+01
fbde 0
fcde 6
fdde 24
ffde 0
fgde 10
fhde 0
flodf 0
fadf 0
fbdf 0
fcdf 0
fddf 0
fedf 0
fgdf 0
fhdf 0
flodg 0
fadg 0
fbdg 0
fcdg 0
fddg 0
fedg 0
ffdg 0
fhdg 0
flodh 0
fadh 0
fbdh 0
fcdh 0
fddh 0
fedh 0
ffdh 0
fgdh 0
floea 0
fbea 0
fcea 0
fdea 0
feea 0
ffea 0
fgea 0
fhea 0
floeb 0
faeb 0
fceb 0
fdeb 0
feeb 0
ffeb 0
fgeb 0
fheb 0
floec 6.5666666666666671e+01
faec 0
fbec 15
fdec 0
feec 4.0000000000000014e+01
ffec 1.0666666666666657e+01
fgec 0
fhec 0
floed 0
faed 0
fbed 0
fced 0
feed 0
ffed 0
fged 0
fhed 0
floef 0
faef 0
fbef 0
fcef 0
fdef 0
feef 0
fgef 0
fhef 0
floeg 6.4666666666666657e+01
faeg 3.6666666666666714e+00
fbeg 9
fceg 0
fdeg 17
feeg 3.4999999999999986e+01
ffeg 0
fheg 0
floeh 0
faeh 0
fbeh 0
fceh 0
fdeh 0
feeh 0
ffeh 0
fgeh 0
flofa 0
fbfa 0
fcfa 0
fdfa 0
fefa 0
fffa 0
fgfa 0
fhfa 0
flofb 5.9333333333333314e+01
fafb 10
fcfb 0
fdfb 0
fefb 2.9999999999999858e+00
fffb 3.5666666666666657e+01
fgfb 1.0666666666666670e+01
fhfb 0
flofc 0
fafc 0
fbfc 0
fdfc 0
fefc 0
fffc 0
fgfc 0
fhfc 0
flofd 0
fafd 0
fbfd 0
fcfd 0
fefd 0
fffd 0
fgfd 0
fhfd 0
flofe 0
fafe 0
fbfe 0
fcfe 0
fdfe 0
fffe 0
fgfe 0
fhfe 0
flofg 0
fafg 0
fbfg 0
fcfg 0
fdfg 0
fefg 0
fffg 0
fhfg 0
flofh 6.5666666666666671e+01
fafh 1.5333333333333329e+01
fbfh 9
fcfh 0
fdfh 0
fefh 0
fffh 3.4333333333333343e+01
fgfh 7
floga 0
fbga 0
fcga 0
fdga 0
fega 0
ffga 0
fgga 0
fhga 0
flogb 0
fagb 0
fcgb 0
fdgb 0
fegb 0
ffgb 0
fggb 0
fhgb 0
flogc 0
fagc 0
fbgc 0
fdgc 0
fegc 0
ffgc 0
fggc 0
fhgc 0
flogd 6.5666666666666671e+01
fagd 0
fbgd 0
fcgd 0
fegd 9
ffgd 7.3333333333333428e+00
fggd 3.5333333333333329e+01
fhgd 14
floge 0
fage 0
fbge 0
fcge 0
fdge 0
ffge 0
fgge 0
fhge 0
flogf 4.9666666666666657e+01
fagf 0
fbgf 0
fcgf 0
fdgf 6
fegf 1.1999999999999986e+01
fggf 2.9666666666666671e+01
fhgf 2
flogh 0
fagh 0
fbgh 0
fcgh 0
fdgh 0
fegh 0
ffgh 0
fggh 0
floha 0
fbha 0
fcha 0
fdha 0
feha 0
ffha 0
fgha 0
fhha 0
flohb 5.7000000000000014e+01
fahb 0
fchb 9
fdhb 8
fehb 9.0000000000000142e+00
ffhb 0
fghb 0
fhhb 31
flohc 0
fahc 0
fbhc 0
fdhc 0
fehc 0
ffhc 0
fghc 0
fhhc 0
flohd 0
fahd 0
fbhd 0
fchd 0
fehd 0
ffhd 0
fghd 0
fhhd 0
flohe 0
fahe 0
fbhe 0
fche 0
fdhe 0
ffhe 0
fghe 0
fhhe 0
flohf 0
fahf 0
fbhf 0
fchf 0
fdhf 0
fehf 0
fghf 0
fhhf 0
flohg 6.5666666666666671e+01
fahg 2.3333333333333286e+00
fbhg 0
fchg 11
fdhg 0
fehg 0
ffhg 2.2333333333333343e+01
fhhg 30
fluxa 128
fluxb 145
fluxc 111
fluxd 118
fluxe 136
fluxf 1.3533333333333334e+02
fluxg 110
fluxh 112
sppa 130
sppb 1.3133333333333334e+02
sppc 1.1933333333333334e+02
sppd 1.2133333333333334e+02
sppe 1.3033333333333331e+02
sppf 1.2499999999999999e+02
sppg 1.1533333333333333e+02
spph 1.2266666666666669e+02
